40
    41    18    66    42   100    71    89    19    92     3    75    57    46     2    53    57    17     9    30    25    90    19    93    69    76    79     5   100    16    89     7    32    78     4    21    85    60    29    43    77
     9    10     5     5     3     1     5     9     1     8     1    10     5     8     9     1     9     4     6     3     2     5     4     1     5     6     7     7     5     7     3     6     8     6     4     6     9     4     6     2
   928   623   690   630   796   811   728   670   618   788   609   629   984   841   918   809   613   644   724   764   667   713   797   663   951   920   716   892   677   774   894   652   988   696   872   713   971   719   956   836
